# guests.lib
#
# Library for guest molecule types
# These are defaults that can be overridden with a custom library
# in the job directory.
#
# Use the template to make new guests. Blocks of text need to be indented.

[template]
name = Molecule Name
source = doi or reference
atoms =
    at_name  at_mass  at_charge  at_x  at_y  at_z  # must be indented
    Ox  15.9994 -0.32560  1.149  0.0  0.0
    Ox  15.9994 -0.32560 -1.149  0.0  0.0
potentials =
    at_name  at_sigma  at_epsilon
    Cx  2.745  0.05948
    Ox  3.017  0.17023
probability =
    atom_id1 atom_id2 ... atom_idN
    0  # 0 is centre of mass
    2  3
# optional values
probe radius = 1.4  # probe to use for void volumes, suface areas, etc
molar volume = 22.414  # used for volumetric uptake (defaults to ideal gas)

[CO2]
name = Carbon Dioxide
source = http://dx.doi.org/10.1021/jp810871f
atoms =
    Cx  12.0107  0.65120  0.0    0.0  0.0
    Ox  15.9994 -0.32560  1.149  0.0  0.0
    Ox  15.9994 -0.32560 -1.149  0.0  0.0
potentials =
    Cx  2.745  0.05948
    Ox  3.017  0.17023
probability =
    1
    2  3
probe radius = 1.71

[TIP5P]
name = TIP5P Water
source = http://dx.doi.org/10.1063/1.481505
atoms =
    Ow  15.9990  0.000 -0.84626011  1.34987746  0.00000000
    Hw   1.0079  0.241 -0.56648324  0.43447769  0.00000000
    Hw   1.0079  0.241 -1.80256726  1.30854376  0.00000000
    L    0.0000 -0.241 -0.61291913  1.67986268 -0.57154330
    L    0.0000 -0.241 -0.61291913  1.67986268  0.57154330
potentials =
    Ow  3.120  0.15999
    Hw  0.000  0.00000
    L   0.000  0.00000
probability =
    0
    1
    2 3
probe radius = 1.4

[TIP5P-Ew]
name = TIP5P-Ew Water for Ewald sums
source = http://dx.doi.org/10.1063/1.1652434
atoms =
    Ow  15.9990  0.000 -0.84626011  1.34987746  0.00000000
    Hw   1.0079  0.241 -0.56648324  0.43447769  0.00000000
    Hw   1.0079  0.241 -1.80256726  1.30854376  0.00000000
    L    0.0000 -0.241 -0.61291913  1.67986268 -0.57154330
    L    0.0000 -0.241 -0.61291913  1.67986268  0.57154330
potentials =
    Ow  3.097  0.17801
    Hw  0.000  0.00000
    L   0.000  0.00000
probability =
    0
    1
    2 3
probe radius = 1.4

[TIP4P-Ew]
name = TIP4P-Ew four-site water model for biomolecular simulations
source = http://dx.doi.org/10.1063/1.1683075
atoms =
    Ow  15.9994  0.00000  0.0000000  0.000000  0.0000000
    Hw   1.0079  0.52422  0.7569503 -0.585882  0.0000000
    Hw   1.0079  0.52422 -0.7569503 -0.585882  0.0000000
    Hx   0.0000 -1.04844  0.0000000 -0.125000  0.0000000
potentials =
    Ow  3.16435  0.16275
    Hw  0.00000  0.00000
    Hx  0.00000  0.00000
probability =
    0
    1
    2 3
probe radius = 1.4

[CH4-TraPPE]
name = TraPPE Methane; Single Site
source = http://dx.doi.org/10.1021/jp972543+
atoms =
    CM  16.000  0.0  0.0  0.0  0.0
potentials =
    CM  3.7300  0.294106
probability =
    0
probe radius = 1.8

[CH4-5s]
name = Methane 5 Site
source = doi://
atoms =
    C_M  12.000 -0.480  0.000000  0.000000  0.000000
    H_M   1.000 +0.120  0.640513  0.640513  0.640513
    H_M   1.000 +0.120 -0.640513 -0.640513  0.640513
    H_M   1.000 +0.120 -0.640513  0.640513 -0.640513
    H_M   1.000 +0.120  0.640513 -0.640513 -0.640513
potentials =
    C_M  3.43085  0.10500
    H_M  2.84600  0.01522
probability =
    0
probe radius = 1.8

[N2]
name = Nitrogen based on Etters potential
source = doi://10.1063/1.1352078
atoms =
    Nx   14.0067 -0.4954 -0.556 0.000 0.000
    Nx   14.0067 -0.4954  0.556 0.000 0.000
    E     0.0000 +0.9908  0.000 0.000 0.000
potentials =
    Nx   3.2096  0.0809
    E    0.0000  0.0000
probability =
    0
    1 2
probe radius = 1.8

[H2S]
name = Hydrogen Sulphide for vapor-liquid equilibria
source = doi://10.1063/1.2049278
atoms =
    SX    32.065 -0.380  0.000000  0.000000  0.000000
    HS     1.008 +0.190  0.967967 -0.926600  0.000000
    HS     1.008 +0.190 -0.967967 -0.926600  0.000000
potentials =
    SX   3.72  0.46103
    HS   0.00  0.00000
probability =
    1
    2 3
probe radius = 1.8

[I2]
name = Iodine Diatom with UFF parameters
source = doi://10.1021/ja204757x
atoms =
    Ix   126.90447 0.000  1.33 0.00 0.00
    Ix   126.90447 0.000 -1.33 0.00 0.00
potentials =
    Ix     4.0090 0.3390
probability =
    0
    1 2
probe radius = 2.0

# vim:ft=dosini:set paste:
